
Route #1: 26 39 13 46 4 47 
Route #2: 44 19 32 28 29 35 
Route #3: 40 34 49 6 48 17 36 21 
Route #4: 7 43 16 42 10 3 25 
Route #5: 14 41 31 33 22 38 12 9 23 30 24 27 18 
Route #6: 1 5 45 11 8 20 37 
Route #7: 15 2 
cost 1085.67
total time is 5.7